; Normalized Portuguese Bank Dataset (numeric features only)
; Min-Max scaled to [-1, 1]
; Numeric column: duration (index 11)

(set-logic QF_AUFLIRA)

(define-fun m () Int 200)
(define-fun n () Int 1)

(declare-const D (Array Int (Array Int Real)))

(define-fun row1 ((x0 Real)) (Array Int Real)
  (store ((as const (Array Int Real)) 0.0) 0 x0)
)

(assert (= (select D 0) (row1 -0.754455)))
(assert (= (select D 1) (row1 -0.863366)))
(assert (= (select D 2) (row1 -0.937624)))
(assert (= (select D 3) (row1 -0.921782)))
(assert (= (select D 4) (row1 -0.816832)))
(assert (= (select D 5) (row1 -0.875248)))
(assert (= (select D 6) (row1 -0.798020)))
(assert (= (select D 7) (row1 -0.636634)))
(assert (= (select D 8) (row1 -0.963366)))
(assert (= (select D 9) (row1 -0.958416)))
(assert (= (select D 10) (row1 -0.793069)))
(assert (= (select D 11) (row1 -0.877228)))
(assert (= (select D 12) (row1 -0.500990)))
(assert (= (select D 13) (row1 -0.942574)))
(assert (= (select D 14) (row1 -0.840594)))
(assert (= (select D 15) (row1 -0.663366)))
(assert (= (select D 16) (row1 -0.915842)))
(assert (= (select D 17) (row1 -0.975248)))
(assert (= (select D 18) (row1 -0.796040)))
(assert (= (select D 19) (row1 -0.959406)))
(assert (= (select D 20) (row1 -0.753465)))
(assert (= (select D 21) (row1 -0.850495)))
(assert (= (select D 22) (row1 -0.854455)))
(assert (= (select D 23) (row1 -0.674257)))
(assert (= (select D 24) (row1 -0.833663)))
(assert (= (select D 25) (row1 -0.842574)))
(assert (= (select D 26) (row1 -0.719802)))
(assert (= (select D 27) (row1 -0.887129)))
(assert (= (select D 28) (row1 -0.760396)))
(assert (= (select D 29) (row1 -0.668317)))
(assert (= (select D 30) (row1 -0.790099)))
(assert (= (select D 31) (row1 -0.785149)))
(assert (= (select D 32) (row1 -0.806931)))
(assert (= (select D 33) (row1 -0.789109)))
(assert (= (select D 34) (row1 -0.680198)))
(assert (= (select D 35) (row1 -0.773267)))
(assert (= (select D 36) (row1 -0.651485)))
(assert (= (select D 37) (row1 0.636634)))
(assert (= (select D 38) (row1 -0.441584)))
(assert (= (select D 39) (row1 -0.877228)))
(assert (= (select D 40) (row1 -0.854455)))
(assert (= (select D 41) (row1 -0.834653)))
(assert (= (select D 42) (row1 -0.991089)))
(assert (= (select D 43) (row1 0.464356)))
(assert (= (select D 44) (row1 -0.402970)))
(assert (= (select D 45) (row1 -0.773267)))
(assert (= (select D 46) (row1 -0.661386)))
(assert (= (select D 47) (row1 -0.790099)))
(assert (= (select D 48) (row1 -0.854455)))
(assert (= (select D 49) (row1 -0.653465)))
(assert (= (select D 50) (row1 -0.749505)))
(assert (= (select D 51) (row1 -0.762376)))
(assert (= (select D 52) (row1 -0.835644)))
(assert (= (select D 53) (row1 -0.233663)))
(assert (= (select D 54) (row1 -0.869307)))
(assert (= (select D 55) (row1 -0.840594)))
(assert (= (select D 56) (row1 -0.909901)))
(assert (= (select D 57) (row1 -1.000000)))
(assert (= (select D 58) (row1 -0.829703)))
(assert (= (select D 59) (row1 0.747525)))
(assert (= (select D 60) (row1 -0.876238)))
(assert (= (select D 61) (row1 -0.208911)))
(assert (= (select D 62) (row1 -0.850495)))
(assert (= (select D 63) (row1 -0.625743)))
(assert (= (select D 64) (row1 -0.659406)))
(assert (= (select D 65) (row1 -0.922772)))
(assert (= (select D 66) (row1 -0.490099)))
(assert (= (select D 67) (row1 -0.742574)))
(assert (= (select D 68) (row1 -0.856436)))
(assert (= (select D 69) (row1 -0.837624)))
(assert (= (select D 70) (row1 -0.757426)))
(assert (= (select D 71) (row1 -0.842574)))
(assert (= (select D 72) (row1 -0.860396)))
(assert (= (select D 73) (row1 -0.724752)))
(assert (= (select D 74) (row1 -0.833663)))
(assert (= (select D 75) (row1 -0.838614)))
(assert (= (select D 76) (row1 -0.803960)))
(assert (= (select D 77) (row1 -0.667327)))
(assert (= (select D 78) (row1 -0.743564)))
(assert (= (select D 79) (row1 -0.806931)))
(assert (= (select D 80) (row1 -0.821782)))
(assert (= (select D 81) (row1 -0.802970)))
(assert (= (select D 82) (row1 -0.993069)))
(assert (= (select D 83) (row1 0.018812)))
(assert (= (select D 84) (row1 -0.769307)))
(assert (= (select D 85) (row1 -0.489109)))
(assert (= (select D 86) (row1 0.439604)))
(assert (= (select D 87) (row1 0.362376)))
(assert (= (select D 88) (row1 -0.826733)))
(assert (= (select D 89) (row1 -0.834653)))
(assert (= (select D 90) (row1 -0.965347)))
(assert (= (select D 91) (row1 -0.801980)))
(assert (= (select D 92) (row1 -0.435644)))
(assert (= (select D 93) (row1 -0.794059)))
(assert (= (select D 94) (row1 -0.841584)))
(assert (= (select D 95) (row1 -0.591089)))
(assert (= (select D 96) (row1 -0.728713)))
(assert (= (select D 97) (row1 -0.912871)))
(assert (= (select D 98) (row1 -0.811881)))
(assert (= (select D 99) (row1 -0.817822)))
(assert (= (select D 100) (row1 -0.758416)))
(assert (= (select D 101) (row1 -0.890099)))
(assert (= (select D 102) (row1 -0.786139)))
(assert (= (select D 103) (row1 -0.958416)))
(assert (= (select D 104) (row1 -0.616832)))
(assert (= (select D 105) (row1 -0.817822)))
(assert (= (select D 106) (row1 -0.824752)))
(assert (= (select D 107) (row1 -0.992079)))
(assert (= (select D 108) (row1 -0.503960)))
(assert (= (select D 109) (row1 -0.172277)))
(assert (= (select D 110) (row1 -0.820792)))
(assert (= (select D 111) (row1 -0.870297)))
(assert (= (select D 112) (row1 -0.802970)))
(assert (= (select D 113) (row1 -0.729703)))
(assert (= (select D 114) (row1 -0.906931)))
(assert (= (select D 115) (row1 -0.768317)))
(assert (= (select D 116) (row1 -0.500000)))
(assert (= (select D 117) (row1 -0.652475)))
(assert (= (select D 118) (row1 -0.836634)))
(assert (= (select D 119) (row1 -0.915842)))
(assert (= (select D 120) (row1 -0.578218)))
(assert (= (select D 121) (row1 -0.934653)))
(assert (= (select D 122) (row1 -0.894059)))
(assert (= (select D 123) (row1 -0.887129)))
(assert (= (select D 124) (row1 -0.839604)))
(assert (= (select D 125) (row1 -0.753465)))
(assert (= (select D 126) (row1 -0.952475)))
(assert (= (select D 127) (row1 -0.935644)))
(assert (= (select D 128) (row1 -0.871287)))
(assert (= (select D 129) (row1 -0.439604)))
(assert (= (select D 130) (row1 -0.342574)))
(assert (= (select D 131) (row1 -0.671287)))
(assert (= (select D 132) (row1 -0.829703)))
(assert (= (select D 133) (row1 -0.913861)))
(assert (= (select D 134) (row1 -0.889109)))
(assert (= (select D 135) (row1 -0.821782)))
(assert (= (select D 136) (row1 -0.878218)))
(assert (= (select D 137) (row1 -0.940594)))
(assert (= (select D 138) (row1 -0.490099)))
(assert (= (select D 139) (row1 -0.477228)))
(assert (= (select D 140) (row1 -0.851485)))
(assert (= (select D 141) (row1 -0.714851)))
(assert (= (select D 142) (row1 -0.967327)))
(assert (= (select D 143) (row1 -0.810891)))
(assert (= (select D 144) (row1 -0.915842)))
(assert (= (select D 145) (row1 -0.942574)))
(assert (= (select D 146) (row1 -0.857426)))
(assert (= (select D 147) (row1 -0.772277)))
(assert (= (select D 148) (row1 -0.828713)))
(assert (= (select D 149) (row1 -0.439604)))
(assert (= (select D 150) (row1 -0.851485)))
(assert (= (select D 151) (row1 -0.408911)))
(assert (= (select D 152) (row1 1.000000)))
(assert (= (select D 153) (row1 -0.928713)))
(assert (= (select D 154) (row1 -0.900000)))
(assert (= (select D 155) (row1 -0.900000)))
(assert (= (select D 156) (row1 -0.956436)))
(assert (= (select D 157) (row1 -0.777228)))
(assert (= (select D 158) (row1 -0.920792)))
(assert (= (select D 159) (row1 -0.886139)))
(assert (= (select D 160) (row1 -0.906931)))
(assert (= (select D 161) (row1 -0.833663)))
(assert (= (select D 162) (row1 -0.712871)))
(assert (= (select D 163) (row1 -0.460396)))
(assert (= (select D 164) (row1 -0.745545)))
(assert (= (select D 165) (row1 -0.787129)))
(assert (= (select D 166) (row1 -0.914851)))
(assert (= (select D 167) (row1 -0.775248)))
(assert (= (select D 168) (row1 -0.346535)))
(assert (= (select D 169) (row1 -0.782178)))
(assert (= (select D 170) (row1 0.032673)))
(assert (= (select D 171) (row1 -0.765347)))
(assert (= (select D 172) (row1 -0.763366)))
(assert (= (select D 173) (row1 -0.876238)))
(assert (= (select D 174) (row1 -0.884158)))
(assert (= (select D 175) (row1 -0.604950)))
(assert (= (select D 176) (row1 -0.835644)))
(assert (= (select D 177) (row1 -0.994059)))
(assert (= (select D 178) (row1 -0.559406)))
(assert (= (select D 179) (row1 -0.302970)))
(assert (= (select D 180) (row1 -0.702970)))
(assert (= (select D 181) (row1 -0.336634)))
(assert (= (select D 182) (row1 0.053465)))
(assert (= (select D 183) (row1 -0.600990)))
(assert (= (select D 184) (row1 -0.868317)))
(assert (= (select D 185) (row1 -0.847525)))
(assert (= (select D 186) (row1 -0.700990)))
(assert (= (select D 187) (row1 -0.874257)))
(assert (= (select D 188) (row1 -0.670297)))
(assert (= (select D 189) (row1 -0.456436)))
(assert (= (select D 190) (row1 -0.842574)))
(assert (= (select D 191) (row1 -0.798020)))
(assert (= (select D 192) (row1 -0.872277)))
(assert (= (select D 193) (row1 -0.946535)))
(assert (= (select D 194) (row1 -0.724752)))
(assert (= (select D 195) (row1 -0.706931)))
(assert (= (select D 196) (row1 -0.767327)))
(assert (= (select D 197) (row1 -0.915842)))
(assert (= (select D 198) (row1 -0.759406)))
(assert (= (select D 199) (row1 -0.931683)))

(define-fun min () Real -1.0)
(define-fun max () Real  1.0)




; ===== auxiliary lemma: local min-max validity =====

(assert
  (and
    (and (>= (select (select D 0) 0) min) (<= (select (select D 0) 0) max))
    (and (>= (select (select D 1) 0) min) (<= (select (select D 1) 0) max))
    (and (>= (select (select D 2) 0) min) (<= (select (select D 2) 0) max))
    (and (>= (select (select D 3) 0) min) (<= (select (select D 3) 0) max))
    (and (>= (select (select D 4) 0) min) (<= (select (select D 4) 0) max))
    (and (>= (select (select D 5) 0) min) (<= (select (select D 5) 0) max))
    (and (>= (select (select D 6) 0) min) (<= (select (select D 6) 0) max))
    (and (>= (select (select D 7) 0) min) (<= (select (select D 7) 0) max))
    (and (>= (select (select D 8) 0) min) (<= (select (select D 8) 0) max))
    (and (>= (select (select D 9) 0) min) (<= (select (select D 9) 0) max))
    (and (>= (select (select D 10) 0) min) (<= (select (select D 10) 0) max))
    (and (>= (select (select D 11) 0) min) (<= (select (select D 11) 0) max))
    (and (>= (select (select D 12) 0) min) (<= (select (select D 12) 0) max))
    (and (>= (select (select D 13) 0) min) (<= (select (select D 13) 0) max))
    (and (>= (select (select D 14) 0) min) (<= (select (select D 14) 0) max))
    (and (>= (select (select D 15) 0) min) (<= (select (select D 15) 0) max))
    (and (>= (select (select D 16) 0) min) (<= (select (select D 16) 0) max))
    (and (>= (select (select D 17) 0) min) (<= (select (select D 17) 0) max))
    (and (>= (select (select D 18) 0) min) (<= (select (select D 18) 0) max))
    (and (>= (select (select D 19) 0) min) (<= (select (select D 19) 0) max))
    (and (>= (select (select D 20) 0) min) (<= (select (select D 20) 0) max))
    (and (>= (select (select D 21) 0) min) (<= (select (select D 21) 0) max))
    (and (>= (select (select D 22) 0) min) (<= (select (select D 22) 0) max))
    (and (>= (select (select D 23) 0) min) (<= (select (select D 23) 0) max))
    (and (>= (select (select D 24) 0) min) (<= (select (select D 24) 0) max))
    (and (>= (select (select D 25) 0) min) (<= (select (select D 25) 0) max))
    (and (>= (select (select D 26) 0) min) (<= (select (select D 26) 0) max))
    (and (>= (select (select D 27) 0) min) (<= (select (select D 27) 0) max))
    (and (>= (select (select D 28) 0) min) (<= (select (select D 28) 0) max))
    (and (>= (select (select D 29) 0) min) (<= (select (select D 29) 0) max))
    (and (>= (select (select D 30) 0) min) (<= (select (select D 30) 0) max))
    (and (>= (select (select D 31) 0) min) (<= (select (select D 31) 0) max))
    (and (>= (select (select D 32) 0) min) (<= (select (select D 32) 0) max))
    (and (>= (select (select D 33) 0) min) (<= (select (select D 33) 0) max))
    (and (>= (select (select D 34) 0) min) (<= (select (select D 34) 0) max))
    (and (>= (select (select D 35) 0) min) (<= (select (select D 35) 0) max))
    (and (>= (select (select D 36) 0) min) (<= (select (select D 36) 0) max))
    (and (>= (select (select D 37) 0) min) (<= (select (select D 37) 0) max))
    (and (>= (select (select D 38) 0) min) (<= (select (select D 38) 0) max))
    (and (>= (select (select D 39) 0) min) (<= (select (select D 39) 0) max))
    (and (>= (select (select D 40) 0) min) (<= (select (select D 40) 0) max))
    (and (>= (select (select D 41) 0) min) (<= (select (select D 41) 0) max))
    (and (>= (select (select D 42) 0) min) (<= (select (select D 42) 0) max))
    (and (>= (select (select D 43) 0) min) (<= (select (select D 43) 0) max))
    (and (>= (select (select D 44) 0) min) (<= (select (select D 44) 0) max))
    (and (>= (select (select D 45) 0) min) (<= (select (select D 45) 0) max))
    (and (>= (select (select D 46) 0) min) (<= (select (select D 46) 0) max))
    (and (>= (select (select D 47) 0) min) (<= (select (select D 47) 0) max))
    (and (>= (select (select D 48) 0) min) (<= (select (select D 48) 0) max))
    (and (>= (select (select D 49) 0) min) (<= (select (select D 49) 0) max))
    (and (>= (select (select D 50) 0) min) (<= (select (select D 50) 0) max))
    (and (>= (select (select D 51) 0) min) (<= (select (select D 51) 0) max))
    (and (>= (select (select D 52) 0) min) (<= (select (select D 52) 0) max))
    (and (>= (select (select D 53) 0) min) (<= (select (select D 53) 0) max))
    (and (>= (select (select D 54) 0) min) (<= (select (select D 54) 0) max))
    (and (>= (select (select D 55) 0) min) (<= (select (select D 55) 0) max))
    (and (>= (select (select D 56) 0) min) (<= (select (select D 56) 0) max))
    (and (>= (select (select D 57) 0) min) (<= (select (select D 57) 0) max))
    (and (>= (select (select D 58) 0) min) (<= (select (select D 58) 0) max))
    (and (>= (select (select D 59) 0) min) (<= (select (select D 59) 0) max))
    (and (>= (select (select D 60) 0) min) (<= (select (select D 60) 0) max))
    (and (>= (select (select D 61) 0) min) (<= (select (select D 61) 0) max))
    (and (>= (select (select D 62) 0) min) (<= (select (select D 62) 0) max))
    (and (>= (select (select D 63) 0) min) (<= (select (select D 63) 0) max))
    (and (>= (select (select D 64) 0) min) (<= (select (select D 64) 0) max))
    (and (>= (select (select D 65) 0) min) (<= (select (select D 65) 0) max))
    (and (>= (select (select D 66) 0) min) (<= (select (select D 66) 0) max))
    (and (>= (select (select D 67) 0) min) (<= (select (select D 67) 0) max))
    (and (>= (select (select D 68) 0) min) (<= (select (select D 68) 0) max))
    (and (>= (select (select D 69) 0) min) (<= (select (select D 69) 0) max))
    (and (>= (select (select D 70) 0) min) (<= (select (select D 70) 0) max))
    (and (>= (select (select D 71) 0) min) (<= (select (select D 71) 0) max))
    (and (>= (select (select D 72) 0) min) (<= (select (select D 72) 0) max))
    (and (>= (select (select D 73) 0) min) (<= (select (select D 73) 0) max))
    (and (>= (select (select D 74) 0) min) (<= (select (select D 74) 0) max))
    (and (>= (select (select D 75) 0) min) (<= (select (select D 75) 0) max))
    (and (>= (select (select D 76) 0) min) (<= (select (select D 76) 0) max))
    (and (>= (select (select D 77) 0) min) (<= (select (select D 77) 0) max))
    (and (>= (select (select D 78) 0) min) (<= (select (select D 78) 0) max))
    (and (>= (select (select D 79) 0) min) (<= (select (select D 79) 0) max))
    (and (>= (select (select D 80) 0) min) (<= (select (select D 80) 0) max))
    (and (>= (select (select D 81) 0) min) (<= (select (select D 81) 0) max))
    (and (>= (select (select D 82) 0) min) (<= (select (select D 82) 0) max))
    (and (>= (select (select D 83) 0) min) (<= (select (select D 83) 0) max))
    (and (>= (select (select D 84) 0) min) (<= (select (select D 84) 0) max))
    (and (>= (select (select D 85) 0) min) (<= (select (select D 85) 0) max))
    (and (>= (select (select D 86) 0) min) (<= (select (select D 86) 0) max))
    (and (>= (select (select D 87) 0) min) (<= (select (select D 87) 0) max))
    (and (>= (select (select D 88) 0) min) (<= (select (select D 88) 0) max))
    (and (>= (select (select D 89) 0) min) (<= (select (select D 89) 0) max))
    (and (>= (select (select D 90) 0) min) (<= (select (select D 90) 0) max))
    (and (>= (select (select D 91) 0) min) (<= (select (select D 91) 0) max))
    (and (>= (select (select D 92) 0) min) (<= (select (select D 92) 0) max))
    (and (>= (select (select D 93) 0) min) (<= (select (select D 93) 0) max))
    (and (>= (select (select D 94) 0) min) (<= (select (select D 94) 0) max))
    (and (>= (select (select D 95) 0) min) (<= (select (select D 95) 0) max))
    (and (>= (select (select D 96) 0) min) (<= (select (select D 96) 0) max))
    (and (>= (select (select D 97) 0) min) (<= (select (select D 97) 0) max))
    (and (>= (select (select D 98) 0) min) (<= (select (select D 98) 0) max))
    (and (>= (select (select D 99) 0) min) (<= (select (select D 99) 0) max))
    (and (>= (select (select D 100) 0) min) (<= (select (select D 100) 0) max))
    (and (>= (select (select D 101) 0) min) (<= (select (select D 101) 0) max))
    (and (>= (select (select D 102) 0) min) (<= (select (select D 102) 0) max))
    (and (>= (select (select D 103) 0) min) (<= (select (select D 103) 0) max))
    (and (>= (select (select D 104) 0) min) (<= (select (select D 104) 0) max))
    (and (>= (select (select D 105) 0) min) (<= (select (select D 105) 0) max))
    (and (>= (select (select D 106) 0) min) (<= (select (select D 106) 0) max))
    (and (>= (select (select D 107) 0) min) (<= (select (select D 107) 0) max))
    (and (>= (select (select D 108) 0) min) (<= (select (select D 108) 0) max))
    (and (>= (select (select D 109) 0) min) (<= (select (select D 109) 0) max))
    (and (>= (select (select D 110) 0) min) (<= (select (select D 110) 0) max))
    (and (>= (select (select D 111) 0) min) (<= (select (select D 111) 0) max))
    (and (>= (select (select D 112) 0) min) (<= (select (select D 112) 0) max))
    (and (>= (select (select D 113) 0) min) (<= (select (select D 113) 0) max))
    (and (>= (select (select D 114) 0) min) (<= (select (select D 114) 0) max))
    (and (>= (select (select D 115) 0) min) (<= (select (select D 115) 0) max))
    (and (>= (select (select D 116) 0) min) (<= (select (select D 116) 0) max))
    (and (>= (select (select D 117) 0) min) (<= (select (select D 117) 0) max))
    (and (>= (select (select D 118) 0) min) (<= (select (select D 118) 0) max))
    (and (>= (select (select D 119) 0) min) (<= (select (select D 119) 0) max))
    (and (>= (select (select D 120) 0) min) (<= (select (select D 120) 0) max))
    (and (>= (select (select D 121) 0) min) (<= (select (select D 121) 0) max))
    (and (>= (select (select D 122) 0) min) (<= (select (select D 122) 0) max))
    (and (>= (select (select D 123) 0) min) (<= (select (select D 123) 0) max))
    (and (>= (select (select D 124) 0) min) (<= (select (select D 124) 0) max))
    (and (>= (select (select D 125) 0) min) (<= (select (select D 125) 0) max))
    (and (>= (select (select D 126) 0) min) (<= (select (select D 126) 0) max))
    (and (>= (select (select D 127) 0) min) (<= (select (select D 127) 0) max))
    (and (>= (select (select D 128) 0) min) (<= (select (select D 128) 0) max))
    (and (>= (select (select D 129) 0) min) (<= (select (select D 129) 0) max))
    (and (>= (select (select D 130) 0) min) (<= (select (select D 130) 0) max))
    (and (>= (select (select D 131) 0) min) (<= (select (select D 131) 0) max))
    (and (>= (select (select D 132) 0) min) (<= (select (select D 132) 0) max))
    (and (>= (select (select D 133) 0) min) (<= (select (select D 133) 0) max))
    (and (>= (select (select D 134) 0) min) (<= (select (select D 134) 0) max))
    (and (>= (select (select D 135) 0) min) (<= (select (select D 135) 0) max))
    (and (>= (select (select D 136) 0) min) (<= (select (select D 136) 0) max))
    (and (>= (select (select D 137) 0) min) (<= (select (select D 137) 0) max))
    (and (>= (select (select D 138) 0) min) (<= (select (select D 138) 0) max))
    (and (>= (select (select D 139) 0) min) (<= (select (select D 139) 0) max))
    (and (>= (select (select D 140) 0) min) (<= (select (select D 140) 0) max))
    (and (>= (select (select D 141) 0) min) (<= (select (select D 141) 0) max))
    (and (>= (select (select D 142) 0) min) (<= (select (select D 142) 0) max))
    (and (>= (select (select D 143) 0) min) (<= (select (select D 143) 0) max))
    (and (>= (select (select D 144) 0) min) (<= (select (select D 144) 0) max))
    (and (>= (select (select D 145) 0) min) (<= (select (select D 145) 0) max))
    (and (>= (select (select D 146) 0) min) (<= (select (select D 146) 0) max))
    (and (>= (select (select D 147) 0) min) (<= (select (select D 147) 0) max))
    (and (>= (select (select D 148) 0) min) (<= (select (select D 148) 0) max))
    (and (>= (select (select D 149) 0) min) (<= (select (select D 149) 0) max))
    (and (>= (select (select D 150) 0) min) (<= (select (select D 150) 0) max))
    (and (>= (select (select D 151) 0) min) (<= (select (select D 151) 0) max))
    (and (>= (select (select D 152) 0) min) (<= (select (select D 152) 0) max))
    (and (>= (select (select D 153) 0) min) (<= (select (select D 153) 0) max))
    (and (>= (select (select D 154) 0) min) (<= (select (select D 154) 0) max))
    (and (>= (select (select D 155) 0) min) (<= (select (select D 155) 0) max))
    (and (>= (select (select D 156) 0) min) (<= (select (select D 156) 0) max))
    (and (>= (select (select D 157) 0) min) (<= (select (select D 157) 0) max))
    (and (>= (select (select D 158) 0) min) (<= (select (select D 158) 0) max))
    (and (>= (select (select D 159) 0) min) (<= (select (select D 159) 0) max))
    (and (>= (select (select D 160) 0) min) (<= (select (select D 160) 0) max))
    (and (>= (select (select D 161) 0) min) (<= (select (select D 161) 0) max))
    (and (>= (select (select D 162) 0) min) (<= (select (select D 162) 0) max))
    (and (>= (select (select D 163) 0) min) (<= (select (select D 163) 0) max))
    (and (>= (select (select D 164) 0) min) (<= (select (select D 164) 0) max))
    (and (>= (select (select D 165) 0) min) (<= (select (select D 165) 0) max))
    (and (>= (select (select D 166) 0) min) (<= (select (select D 166) 0) max))
    (and (>= (select (select D 167) 0) min) (<= (select (select D 167) 0) max))
    (and (>= (select (select D 168) 0) min) (<= (select (select D 168) 0) max))
    (and (>= (select (select D 169) 0) min) (<= (select (select D 169) 0) max))
    (and (>= (select (select D 170) 0) min) (<= (select (select D 170) 0) max))
    (and (>= (select (select D 171) 0) min) (<= (select (select D 171) 0) max))
    (and (>= (select (select D 172) 0) min) (<= (select (select D 172) 0) max))
    (and (>= (select (select D 173) 0) min) (<= (select (select D 173) 0) max))
    (and (>= (select (select D 174) 0) min) (<= (select (select D 174) 0) max))
    (and (>= (select (select D 175) 0) min) (<= (select (select D 175) 0) max))
    (and (>= (select (select D 176) 0) min) (<= (select (select D 176) 0) max))
    (and (>= (select (select D 177) 0) min) (<= (select (select D 177) 0) max))
    (and (>= (select (select D 178) 0) min) (<= (select (select D 178) 0) max))
    (and (>= (select (select D 179) 0) min) (<= (select (select D 179) 0) max))
    (and (>= (select (select D 180) 0) min) (<= (select (select D 180) 0) max))
    (and (>= (select (select D 181) 0) min) (<= (select (select D 181) 0) max))
    (and (>= (select (select D 182) 0) min) (<= (select (select D 182) 0) max))
    (and (>= (select (select D 183) 0) min) (<= (select (select D 183) 0) max))
    (and (>= (select (select D 184) 0) min) (<= (select (select D 184) 0) max))
    (and (>= (select (select D 185) 0) min) (<= (select (select D 185) 0) max))
    (and (>= (select (select D 186) 0) min) (<= (select (select D 186) 0) max))
    (and (>= (select (select D 187) 0) min) (<= (select (select D 187) 0) max))
    (and (>= (select (select D 188) 0) min) (<= (select (select D 188) 0) max))
    (and (>= (select (select D 189) 0) min) (<= (select (select D 189) 0) max))
    (and (>= (select (select D 190) 0) min) (<= (select (select D 190) 0) max))
    (and (>= (select (select D 191) 0) min) (<= (select (select D 191) 0) max))
    (and (>= (select (select D 192) 0) min) (<= (select (select D 192) 0) max))
    (and (>= (select (select D 193) 0) min) (<= (select (select D 193) 0) max))
    (and (>= (select (select D 194) 0) min) (<= (select (select D 194) 0) max))
    (and (>= (select (select D 195) 0) min) (<= (select (select D 195) 0) max))
    (and (>= (select (select D 196) 0) min) (<= (select (select D 196) 0) max))
    (and (>= (select (select D 197) 0) min) (<= (select (select D 197) 0) max))
    (and (>= (select (select D 198) 0) min) (<= (select (select D 198) 0) max))
    (and (>= (select (select D 199) 0) min) (<= (select (select D 199) 0) max))
  )
)

(check-sat)
; =================================================
